Set parameter LicenseID to value 2609176
Set parameter TimeLimit to value 1800
Gurobi Optimizer version 11.0.3 build v11.0.3rc0 (linux64 - "Debian GNU/Linux 12 (bookworm)")

CPU model: AMD EPYC 7B12, instruction set [SSE2|AVX|AVX2]
Thread count: 4 physical cores, 8 logical processors, using up to 8 threads

Optimize a model with 403919 rows, 438244 columns and 177068451 nonzeros
Model fingerprint: 0x9963af44
Variable types: 0 continuous, 438244 integer (438244 binary)
Coefficient statistics:
  Matrix range     [1e+00, 1e+00]
  Objective range  [0e+00, 0e+00]
  Bounds range     [1e+00, 1e+00]
  RHS range        [1e+00, 1e+00]
Presolve removed 0 rows and 0 columns (presolve time = 6s) ...
Presolve removed 331 rows and 331 columns (presolve time = 13s) ...
Presolve removed 331 rows and 331 columns (presolve time = 15s) ...
Presolve removed 331 rows and 331 columns (presolve time = 21s) ...
Presolve removed 331 rows and 331 columns (presolve time = 25s) ...
Presolve removed 331 rows and 331 columns (presolve time = 30s) ...
Presolve removed 331 rows and 331 columns (presolve time = 35s) ...
Presolve removed 331 rows and 331 columns (presolve time = 40s) ...
Presolve removed 331 rows and 331 columns (presolve time = 45s) ...
Presolve removed 331 rows and 331 columns (presolve time = 50s) ...
Presolve removed 331 rows and 331 columns (presolve time = 57s) ...
Presolve removed 331 rows and 331 columns (presolve time = 61s) ...
Presolve removed 331 rows and 331 columns (presolve time = 65s) ...
Presolve removed 331 rows and 331 columns (presolve time = 70s) ...
Presolve removed 331 rows and 331 columns (presolve time = 75s) ...
Presolve removed 331 rows and 331 columns (presolve time = 80s) ...
Presolve removed 331 rows and 331 columns (presolve time = 85s) ...
Presolve removed 331 rows and 331 columns (presolve time = 90s) ...
Presolve removed 331 rows and 331 columns (presolve time = 95s) ...
Presolve removed 331 rows and 331 columns (presolve time = 100s) ...
Presolve removed 331 rows and 331 columns (presolve time = 105s) ...
Presolve removed 1348 rows and 331 columns (presolve time = 112s) ...
Presolve removed 1348 rows and 331 columns (presolve time = 116s) ...
Presolve removed 1348 rows and 331 columns (presolve time = 121s) ...
Presolve removed 1348 rows and 331 columns (presolve time = 125s) ...
Presolve removed 1348 rows and 331 columns (presolve time = 130s) ...
Presolve removed 1348 rows and 331 columns (presolve time = 135s) ...
Presolve removed 1348 rows and 331 columns (presolve time = 140s) ...
Presolve removed 1348 rows and 331 columns (presolve time = 147s) ...
Presolve removed 1348 rows and 331 columns (presolve time = 150s) ...
Presolve removed 1348 rows and 331 columns (presolve time = 155s) ...
Presolve removed 1348 rows and 331 columns (presolve time = 161s) ...
Presolve removed 1348 rows and 331 columns (presolve time = 165s) ...
Presolve removed 1348 rows and 331 columns (presolve time = 178s) ...
Presolve removed 1348 rows and 331 columns (presolve time = 182s) ...
Presolve removed 1348 rows and 331 columns (presolve time = 186s) ...
Presolve removed 1348 rows and 331 columns (presolve time = 190s) ...
Presolve removed 1348 rows and 331 columns (presolve time = 195s) ...
Presolve removed 1348 rows and 331 columns (presolve time = 200s) ...
Presolve removed 1348 rows and 331 columns (presolve time = 205s) ...
Presolve removed 1348 rows and 331 columns (presolve time = 211s) ...
Presolve removed 1348 rows and 331 columns (presolve time = 215s) ...
Presolve removed 1348 rows and 331 columns (presolve time = 231s) ...
Presolve removed 1348 rows and 331 columns (presolve time = 235s) ...
Presolve removed 1348 rows and 331 columns (presolve time = 240s) ...
Presolve removed 1348 rows and 331 columns (presolve time = 245s) ...
Presolve removed 1348 rows and 331 columns (presolve time = 250s) ...
Presolve removed 1348 rows and 331 columns (presolve time = 255s) ...
Presolve removed 1348 rows and 331 columns (presolve time = 260s) ...
Presolve removed 1348 rows and 331 columns (presolve time = 265s) ...
Presolve removed 1348 rows and 331 columns (presolve time = 270s) ...
Presolve removed 1348 rows and 331 columns (presolve time = 275s) ...
Presolve removed 1348 rows and 331 columns (presolve time = 280s) ...
Presolve removed 1348 rows and 331 columns (presolve time = 285s) ...
Presolve removed 1348 rows and 331 columns (presolve time = 290s) ...
Presolve removed 1348 rows and 331 columns (presolve time = 295s) ...
Presolve removed 1348 rows and 331 columns (presolve time = 300s) ...
Presolve removed 1348 rows and 331 columns (presolve time = 305s) ...
Presolve removed 1348 rows and 331 columns (presolve time = 310s) ...
Presolve removed 1348 rows and 331 columns (presolve time = 315s) ...
Presolve removed 1348 rows and 331 columns (presolve time = 320s) ...
Presolve removed 1348 rows and 331 columns (presolve time = 325s) ...
Presolve removed 1348 rows and 331 columns (presolve time = 330s) ...
Presolve removed 1348 rows and 331 columns (presolve time = 335s) ...
Presolve removed 1348 rows and 331 columns (presolve time = 340s) ...
Presolve removed 1348 rows and 331 columns (presolve time = 345s) ...
Presolve removed 1348 rows and 331 columns (presolve time = 350s) ...
Presolve removed 1348 rows and 331 columns (presolve time = 355s) ...
Presolve removed 1348 rows and 331 columns (presolve time = 360s) ...
Presolve removed 1348 rows and 331 columns (presolve time = 365s) ...
Presolve removed 1348 rows and 331 columns (presolve time = 370s) ...
Presolve removed 1348 rows and 331 columns (presolve time = 380s) ...
Presolve removed 1348 rows and 331 columns
Presolve time: 380.42s
Presolved: 402571 rows, 437913 columns, 176407173 nonzeros
Variable types: 0 continuous, 437913 integer (437913 binary)
Error: invalid user locale; possible fix is to set the system environment
       variable 'LC_ALL' to a valid locale (e.g., to 'C')
